 200 97 
 79 97 90 51 24 71 39 23 14 69 23 13 
 68 6 12 1 89 9 87 43 51 3 97 39 
 94 87 84 45 61 38 69 31 92 70 41 69 
 1 87 9 37 58 42 19 24 28 24 23 30 
 82 78 17 49 68 23 83 77 92 35 70 60 
 51 44 90 23 95 82 91 30 54 48 63 72 
 33 64 63 69 86 74 33 64 51 63 54 30 
 11 2 40 70 94 94 55 90 38 80 26 31 
 56 
 72 
 3 4 5 6 7 8 9 10 13 14 15 16 
 17 18 19 21 23 24 26 27 29 30 31 32 
 33 34 35 36 37 38 39 40 41 42 43 44 
 46 47 48 49 51 53 54 55 56 57 58 60 
 61 62 63 66 67 68 69 71 72 77 78 79 
 81 83 84 85 88 90 91 92 93 94 96 97 
 57 
 1 2 3 4 5 6 7 8 14 18 20 22 
 23 26 27 30 31 33 36 37 38 39 40 41 
 45 47 48 49 50 53 54 55 56 57 58 60 
 61 64 67 69 70 71 74 77 78 79 80 82 
 83 85 89 90 93 94 95 96 97 
 8 
 8 23 28 33 42 58 73 93 
 68 
 2 4 5 6 7 8 10 11 12 13 14 17 
 18 19 20 21 24 26 27 30 32 33 34 35 
 37 38 39 40 41 42 44 46 47 48 50 51 
 52 54 55 56 58 59 61 64 66 67 68 71 
 72 73 74 75 76 77 78 79 81 82 83 84 
 85 86 87 88 89 93 96 97 
 24 
 8 9 10 12 13 14 17 20 24 29 30 32 
 49 51 54 55 57 59 67 69 73 76 86 89 
 67 
 1 4 7 8 9 10 13 14 15 16 18 20 
 21 23 25 26 27 28 29 31 32 33 34 38 
 39 40 41 42 43 47 48 49 50 51 53 54 
 55 56 57 58 59 60 62 63 64 66 68 69 
 71 72 73 74 75 76 78 80 81 82 83 84 
 87 88 89 90 92 94 97 
 10 
 29 33 38 43 47 50 51 52 70 77 
 91 
 1 2 3 4 5 6 7 8 9 10 11 12 
 13 14 15 16 17 18 19 20 22 23 24 25 
 26 27 28 29 30 31 32 33 34 35 37 38 
 39 40 41 42 43 44 45 46 47 48 49 50 
 51 52 53 54 55 56 57 58 59 61 62 63 
 64 66 67 68 69 71 72 73 74 75 76 77 
 78 79 80 81 82 83 84 85 86 87 88 89 
 90 91 93 94 95 96 97 
 25 
 9 16 17 19 21 24 27 29 32 33 39 47 
 52 53 57 63 69 74 75 77 79 88 92 94 
 96 
 70 
 3 4 5 6 7 8 9 10 11 12 13 15 
 16 17 18 19 20 21 22 24 25 26 27 29 
 30 32 34 37 38 42 45 46 47 48 49 50 
 51 52 53 54 55 56 57 58 59 60 62 63 
 64 65 67 68 70 71 72 73 74 78 80 81 
 82 83 84 85 88 89 90 91 94 97 
 6 
 50 52 70 83 86 92 
 55 
 2 3 4 5 12 13 14 15 16 18 19 20 
 23 25 27 30 31 33 34 37 38 42 43 44 
 46 48 51 52 53 54 55 56 59 60 64 65 
 66 67 69 70 71 73 74 75 76 77 79 81 
 82 83 84 86 90 92 94 
 91 
 1 2 3 4 5 6 7 9 10 11 12 13 
 15 16 17 19 20 21 22 23 24 25 26 27 
 28 29 30 31 32 33 34 35 36 37 38 39 
 40 41 42 43 44 45 46 47 48 49 50 51 
 52 53 54 55 56 57 59 60 61 62 63 64 
 65 66 67 68 69 70 71 72 73 74 75 76 
 77 78 79 80 81 82 83 84 85 86 87 88 
 90 91 92 93 94 96 97 
 67 
 1 2 3 4 5 8 9 10 11 12 13 15 
 16 17 19 20 21 22 25 27 28 29 32 34 
 35 36 37 40 41 42 43 44 45 46 47 48 
 50 51 52 53 56 58 59 60 61 64 65 66 
 67 68 70 71 72 73 75 77 78 82 83 85 
 87 90 91 92 95 96 97 
 13 
 11 14 25 26 51 59 61 62 66 72 73 92 
 93 
 20 
 13 14 16 18 19 23 29 32 36 39 42 55 
 58 59 62 64 66 79 80 84 
 33 
 5 10 15 16 21 24 26 27 35 39 42 48 
 49 50 53 55 56 58 59 61 64 65 67 71 
 72 73 74 77 84 85 88 91 94 
 27 
 3 6 9 16 28 29 34 35 37 38 39 42 
 46 49 50 53 54 57 62 66 75 76 78 80 
 82 90 94 
 43 
 2 4 7 8 11 12 13 17 20 21 22 26 
 27 28 29 31 32 33 34 35 40 45 47 49 
 50 51 52 56 58 60 65 66 67 69 73 76 
 78 81 82 87 90 91 96 
 2 
 1 42 
 22 
 2 3 11 13 14 21 24 25 30 33 46 49 
 51 55 56 59 67 68 69 74 91 96 
 18 
 6 19 20 22 27 31 32 35 40 43 51 55 
 60 65 68 72 84 93 
 61 
 2 3 4 6 9 10 11 12 13 15 16 17 
 19 20 25 27 29 32 33 34 37 39 42 44 
 45 46 48 49 50 53 57 58 59 60 62 63 
 65 66 67 70 71 72 73 74 77 78 80 81 
 82 83 84 85 87 88 89 91 93 94 95 96 
 97 
 46 
 1 3 5 6 9 11 12 13 15 16 18 23 
 25 26 27 28 29 31 33 34 39 43 45 47 
 48 49 53 54 55 56 57 63 65 67 70 73 
 74 76 79 80 81 83 87 92 94 97 
 94 
 1 2 3 4 5 6 7 8 9 10 11 12 
 13 14 15 16 17 18 19 20 21 22 23 24 
 25 26 27 28 29 30 31 32 33 34 35 37 
 38 39 40 41 42 43 44 45 46 47 48 49 
 50 51 52 53 54 55 56 58 59 60 61 62 
 63 64 65 66 67 68 70 71 72 73 74 75 
 76 77 78 79 80 81 82 83 84 85 86 87 
 88 89 90 91 92 93 94 95 96 97 
 4 
 6 55 60 77 
 82 
 1 2 3 4 6 7 9 10 11 12 13 14 
 15 16 17 18 19 20 21 24 25 26 27 28 
 29 30 32 33 34 35 36 37 38 39 41 42 
 43 45 46 48 50 52 53 54 55 56 57 58 
 59 60 62 63 64 65 66 67 70 71 72 73 
 74 75 76 77 78 79 80 81 82 83 84 85 
 87 88 89 90 91 92 94 95 96 97 
 95 
 1 2 3 4 5 6 7 8 9 10 11 12 
 13 14 15 16 17 18 19 20 21 22 23 24 
 25 27 28 29 30 31 32 33 34 35 36 37 
 38 39 40 41 42 43 44 45 46 47 48 49 
 50 51 52 53 54 55 56 57 58 59 60 61 
 62 63 64 65 66 67 68 69 70 71 72 73 
 74 75 76 77 78 79 80 81 82 84 85 86 
 87 88 89 90 91 92 93 94 95 96 97 
 6 
 3 50 56 75 76 86 
 95 
 1 2 3 4 5 6 7 8 9 10 11 12 
 13 14 15 17 18 19 20 21 22 23 24 25 
 26 27 28 29 30 31 32 33 34 35 36 37 
 38 39 40 41 42 43 44 45 46 47 48 49 
 50 51 52 53 54 55 56 57 58 59 60 61 
 62 63 64 65 66 67 69 70 71 72 73 74 
 75 76 77 78 79 80 81 82 83 84 85 86 
 87 88 89 90 91 92 93 94 95 96 97 
 93 
 1 2 3 4 5 6 7 8 9 10 12 13 
 14 15 16 17 18 19 20 21 22 23 24 25 
 26 27 28 29 30 31 32 33 34 35 36 37 
 38 39 40 41 43 44 45 46 47 48 49 50 
 51 52 53 54 56 57 58 59 60 61 62 63 
 64 65 66 67 68 69 70 71 72 73 74 75 
 76 77 78 79 80 81 83 84 85 86 87 88 
 89 90 91 92 93 94 95 96 97 
 6 
 23 42 49 59 64 70 
 18 
 2 7 11 16 17 24 28 29 30 53 57 63 
 71 74 77 85 93 97 
 24 
 5 6 10 13 14 16 18 20 24 29 30 32 
 35 40 45 50 53 54 74 77 82 86 88 97 
 37 
 3 7 8 11 18 19 23 24 25 26 33 34 
 36 40 41 42 44 45 47 57 59 62 65 67 
 68 70 72 77 79 80 81 85 86 88 89 96 
 97 
 35 
 4 5 7 8 10 14 16 18 27 28 29 33 
 34 35 41 42 43 46 49 50 52 64 67 70 
 71 73 75 79 82 86 89 90 91 92 93 
 31 
 1 3 6 9 12 13 17 22 33 34 37 38 
 40 47 51 52 54 57 61 63 66 68 69 71 
 72 73 76 77 85 90 93 
 24 
 2 10 11 25 27 31 34 38 39 40 46 47 
 53 54 56 62 69 75 81 87 88 93 94 96 
 49 
 1 5 6 7 10 12 13 16 17 18 22 23 
 25 26 27 28 29 32 33 35 37 38 39 41 
 44 49 51 52 53 54 55 59 60 61 62 63 
 66 68 69 72 73 76 79 82 86 90 92 93 
 97 
 22 
 4 8 10 13 15 16 20 21 27 28 35 49 
 51 52 57 67 69 78 84 85 87 96 
 60 
 1 2 3 4 7 8 10 11 12 13 15 16 
 17 18 19 21 23 24 26 27 29 30 32 33 
 34 35 36 38 39 41 45 46 49 54 55 57 
 59 61 66 67 69 70 71 72 73 74 76 78 
 79 81 82 83 84 85 87 88 89 90 91 94 
 48 
 3 4 8 9 10 11 12 18 19 25 26 27 
 29 32 37 38 40 41 42 44 45 47 50 51 
 55 56 59 60 61 63 67 68 70 71 74 75 
 76 79 81 82 85 87 88 90 91 92 93 95 
 82 
 1 2 3 4 5 6 7 8 9 10 11 13 
 14 15 17 18 19 20 21 22 24 25 26 27 
 28 29 30 31 32 33 34 35 36 38 40 41 
 42 43 44 45 46 47 48 50 52 54 55 56 
 57 59 60 61 63 64 65 66 67 69 71 72 
 73 74 75 76 77 78 79 80 81 82 83 84 
 85 86 87 88 89 92 94 95 96 97 
 78 
 1 2 3 5 6 7 8 9 10 11 12 13 
 15 16 17 18 19 22 23 24 25 26 27 29 
 30 31 32 33 36 38 39 40 41 42 43 45 
 46 47 49 51 52 53 54 55 56 57 58 59 
 60 61 62 63 66 67 68 69 70 71 72 73 
 74 75 76 77 79 82 83 86 87 88 89 90 
 91 92 93 94 95 97 
 93 
 1 2 3 4 5 6 7 8 9 10 11 12 
 13 14 15 16 17 18 19 20 21 22 23 24 
 25 26 27 28 29 30 31 32 33 34 35 36 
 37 38 39 40 41 42 43 45 46 47 48 49 
 50 51 52 53 54 55 56 57 58 59 60 61 
 62 63 65 66 67 68 69 70 71 73 74 75 
 76 77 78 79 80 81 82 83 84 85 86 87 
 88 89 90 91 92 93 94 95 97 
 25 
 4 6 17 28 29 35 37 38 42 43 44 52 
 53 55 60 61 62 66 76 79 83 86 89 90 
 93 
 87 
 2 3 5 6 7 8 9 11 12 13 14 16 
 17 18 19 20 21 23 24 25 26 27 28 29 
 30 31 32 33 34 35 36 37 38 39 40 41 
 42 45 46 47 48 49 50 51 52 53 54 55 
 56 57 58 59 60 61 62 63 64 65 66 69 
 70 71 72 73 74 75 76 77 78 79 80 81 
 82 83 84 85 86 87 88 89 90 91 92 94 
 95 96 97 
 55 
 1 2 4 5 9 10 11 12 15 16 18 19 
 20 21 24 25 26 29 35 37 38 39 42 50 
 51 53 54 56 57 58 59 60 62 65 66 67 
 69 70 71 73 74 75 77 79 81 82 83 84 
 86 88 89 91 93 94 97 
 87 
 1 2 3 5 6 7 8 9 10 11 12 13 
 14 15 16 17 18 19 20 21 22 23 24 25 
 26 27 28 31 32 33 34 35 37 38 39 40 
 41 42 43 44 45 46 47 48 49 50 51 52 
 53 55 56 57 58 59 60 61 62 63 64 65 
 66 67 68 69 70 71 72 73 74 75 77 79 
 80 81 82 83 84 85 86 87 88 89 90 91 
 92 94 95 
 8 
 6 8 17 18 46 48 59 73 
 86 
 1 2 3 4 5 6 7 8 9 10 11 12 
 14 15 16 17 18 19 20 21 22 23 24 25 
 28 30 31 32 33 34 35 36 37 38 39 40 
 41 42 44 45 48 49 50 51 52 53 54 55 
 56 57 58 59 60 61 62 63 64 65 66 68 
 69 70 71 72 73 74 75 76 77 78 79 80 
 81 82 83 84 85 87 88 89 90 91 92 93 
 94 97 
 18 
 2 3 8 16 17 20 22 23 37 45 59 65 
 67 71 77 81 85 92 
 88 
 1 2 3 4 6 7 8 9 10 11 12 13 
 15 18 20 21 22 23 24 25 26 28 29 30 
 31 33 34 35 36 37 38 39 40 41 42 43 
 44 45 46 47 48 49 50 51 52 53 54 55 
 56 57 58 59 60 61 62 63 64 65 66 67 
 68 69 70 71 72 73 74 75 76 77 79 80 
 81 82 83 84 85 86 87 88 89 91 92 93 
 94 95 96 97 
 15 
 9 11 12 13 25 29 37 64 65 69 76 77 
 81 88 95 
 44 
 5 6 10 13 21 23 25 26 27 30 32 33 
 36 39 41 43 44 47 49 51 52 53 54 55 
 58 59 60 61 62 65 66 72 75 78 83 85 
 87 88 89 90 92 93 94 96 
 58 
 1 2 7 8 9 10 11 12 14 15 16 17 
 21 24 26 28 29 30 33 34 35 36 39 41 
 42 43 44 45 46 47 48 49 52 55 57 62 
 63 65 66 67 71 72 73 74 76 77 80 81 
 82 83 88 89 90 91 93 94 96 97 
 73 
 4 8 9 10 11 13 14 15 16 17 18 19 
 20 21 22 25 27 28 29 30 31 32 33 35 
 36 39 40 41 42 43 46 49 50 51 52 55 
 56 57 58 59 60 62 63 64 65 66 67 68 
 69 70 71 72 73 74 76 77 78 79 80 81 
 82 85 86 87 88 89 90 91 92 94 95 96 
 97 
 56 
 1 2 4 7 8 9 11 12 14 15 17 21 
 24 25 26 29 30 33 35 36 39 40 45 46 
 47 48 49 50 51 52 55 57 58 59 60 63 
 64 66 67 69 70 71 75 76 77 78 79 80 
 82 83 84 85 87 92 93 96 
 52 
 2 4 5 9 12 13 16 18 22 24 25 26 
 30 33 34 35 36 37 38 41 42 44 45 47 
 49 50 53 56 58 59 63 64 65 67 68 70 
 72 73 74 76 80 81 82 83 85 86 87 88 
 90 91 92 96 
 94 
 1 2 3 4 5 6 7 8 9 10 11 12 
 13 14 15 16 17 18 19 20 21 22 23 24 
 25 26 27 28 29 30 31 32 34 35 36 37 
 38 39 40 41 42 43 44 46 47 48 49 50 
 51 52 53 54 55 56 57 58 59 60 61 62 
 63 64 65 66 67 68 69 70 71 72 73 74 
 75 76 77 78 79 80 81 82 83 84 85 86 
 87 89 90 91 92 93 94 95 96 97 
 17 
 3 4 5 15 18 36 40 41 44 49 52 62 
 63 71 79 90 97 
 65 
 2 4 5 6 7 8 9 10 11 12 13 15 
 16 17 19 21 22 23 24 25 26 27 28 30 
 33 34 35 36 38 39 40 42 44 49 51 53 
 54 55 56 59 61 62 63 66 67 68 69 70 
 71 72 73 74 76 77 78 80 81 82 83 84 
 87 88 91 94 96 
 64 
 2 3 4 5 6 7 8 9 10 11 12 17 
 18 19 21 22 23 27 29 31 32 33 35 37 
 38 39 40 41 42 43 44 45 46 49 51 52 
 53 54 55 58 59 62 64 65 66 67 68 69 
 70 71 73 77 78 79 80 81 83 86 88 91 
 92 94 95 96 
 28 
 1 14 17 21 29 30 31 35 36 39 42 48 
 49 51 53 54 57 58 65 71 77 78 80 89 
 92 94 96 97 
 32 
 1 3 7 8 9 11 12 14 18 21 29 30 
 31 32 36 40 42 45 50 52 66 69 74 77 
 78 80 85 92 93 94 96 97 
 7 
 16 22 29 39 42 61 63 
 84 
 2 3 5 6 7 8 10 11 12 13 14 15 
 16 17 19 20 21 22 23 24 25 26 27 28 
 29 30 31 32 33 34 35 36 37 38 39 40 
 41 42 43 44 45 46 47 48 51 52 53 55 
 56 57 58 61 62 63 64 66 67 68 69 70 
 71 72 73 74 75 76 77 79 80 81 83 84 
 85 86 87 88 89 91 92 93 94 95 96 97 
 41 
 2 4 5 7 9 10 14 15 16 20 21 22 
 26 27 33 34 35 39 40 42 44 46 49 50 
 55 56 61 62 66 69 71 72 75 80 84 86 
 87 89 91 92 95 
 29 
 2 5 12 13 15 17 19 22 24 37 46 51 
 52 53 59 60 64 65 67 69 74 77 78 81 
 82 83 89 94 96 
 56 
 1 4 5 6 7 9 13 14 16 17 18 20 
 22 23 24 25 26 27 31 34 35 37 38 40 
 41 43 44 48 49 51 53 55 56 58 59 60 
 61 64 66 69 70 71 73 75 76 78 79 82 
 85 86 88 90 91 94 96 97 
 35 
 2 4 5 8 10 13 15 16 17 30 32 35 
 36 37 40 43 47 49 52 56 57 58 62 67 
 68 71 77 79 80 82 85 89 91 94 95 
 87 
 1 2 3 4 5 6 7 9 10 11 12 13 
 14 15 16 18 19 20 21 22 24 25 26 28 
 30 31 32 33 34 36 37 38 40 41 42 43 
 44 45 46 47 48 49 50 51 52 53 54 55 
 56 57 58 59 60 62 64 65 66 67 68 69 
 70 71 72 73 74 76 77 78 79 80 81 82 
 83 84 85 86 87 88 89 90 91 92 93 94 
 95 96 97 
 25 
 9 12 15 17 19 20 22 25 27 28 29 34 
 36 38 40 46 47 48 49 64 78 81 87 90 
 91 
 45 
 1 2 8 12 13 14 15 18 24 26 27 30 
 31 32 34 35 42 43 44 47 48 49 52 54 
 58 59 60 64 65 67 68 69 70 71 72 73 
 74 75 76 80 81 83 84 94 97 
 67 
 2 3 5 7 10 11 13 15 16 20 21 22 
 23 24 27 29 33 34 36 37 38 39 40 41 
 42 43 44 46 47 48 50 53 54 55 56 57 
 58 59 60 61 62 63 66 67 68 69 70 72 
 73 75 77 78 79 80 82 83 84 85 87 88 
 89 91 93 94 95 96 97 
 95 
 1 2 3 4 5 6 7 8 9 10 11 12 
 13 14 15 16 17 18 19 21 22 23 24 25 
 26 27 29 30 31 32 33 34 35 36 37 38 
 39 40 41 42 43 44 45 46 47 48 49 50 
 51 52 53 54 55 56 57 58 59 60 61 62 
 63 64 65 66 67 68 69 70 71 72 73 74 
 75 76 77 78 79 80 81 82 83 84 85 86 
 87 88 89 90 91 92 93 94 95 96 97 
 51 
 3 4 5 6 8 9 11 12 13 16 19 21 
 24 28 29 30 32 34 35 36 40 41 43 46 
 47 48 49 56 61 62 63 64 65 66 68 70 
 71 73 74 76 77 78 81 83 85 87 88 91 
 92 95 96 
 63 
 4 6 7 8 9 10 12 13 16 17 19 21 
 23 24 25 26 27 28 29 32 35 36 37 38 
 39 40 43 44 47 48 49 50 51 53 55 57 
 59 60 61 62 65 68 69 70 72 73 74 76 
 77 80 81 82 83 85 86 87 88 89 90 91 
 92 93 96 
 86 
 1 2 3 4 5 7 8 9 10 11 12 13 
 14 15 16 19 20 21 23 24 25 26 27 29 
 31 32 33 34 35 36 38 39 40 42 43 44 
 45 46 47 48 49 50 51 52 53 55 56 57 
 58 59 60 61 62 63 64 65 66 67 68 69 
 70 72 73 74 75 76 77 78 79 80 81 82 
 83 84 85 86 87 88 89 90 91 92 93 94 
 96 97 
 70 
 2 3 4 5 6 8 9 11 13 15 16 20 
 22 23 24 25 26 27 28 29 31 33 34 35 
 36 37 39 40 41 42 43 46 47 48 49 51 
 52 54 55 58 59 60 61 62 63 64 66 68 
 69 70 71 72 73 74 75 76 78 79 81 82 
 83 84 86 87 88 90 92 94 95 97 
 15 
 5 23 25 26 30 31 42 46 51 58 67 73 
 77 91 97 
 91 
 1 2 3 4 5 7 8 9 10 11 12 13 
 14 15 16 17 18 19 20 21 22 24 25 26 
 27 28 29 30 31 32 33 34 35 36 37 38 
 39 40 41 42 43 44 45 46 47 48 49 50 
 51 53 54 55 56 57 59 60 61 62 63 64 
 66 67 68 69 70 71 72 73 74 75 76 77 
 78 79 80 81 82 83 84 86 87 88 89 90 
 91 92 93 94 95 96 97 
 75 
 1 2 3 7 8 9 10 11 12 13 14 15 
 16 17 18 20 21 23 24 25 26 27 28 29 
 30 33 34 35 36 37 38 40 41 42 44 45 
 46 47 48 49 50 53 54 56 57 58 59 60 
 61 63 66 68 69 71 72 73 75 76 78 79 
 82 83 84 85 86 87 88 89 91 92 93 94 
 95 96 97 
 96 
 1 2 3 4 5 6 7 8 10 11 12 13 
 14 15 16 17 18 19 20 21 22 23 24 25 
 26 27 28 29 30 31 32 33 34 35 36 37 
 38 39 40 41 42 43 44 45 46 47 48 49 
 50 51 52 53 54 55 56 57 58 59 60 61 
 62 63 64 65 66 67 68 69 70 71 72 73 
 74 75 76 77 78 79 80 81 82 83 84 85 
 86 87 88 89 90 91 92 93 94 95 96 97 
 19 
 2 4 8 15 16 28 32 33 46 47 57 60 
 72 75 79 86 90 91 97 
 33 
 1 5 12 13 16 20 23 29 33 34 37 38 
 40 41 42 43 47 48 53 58 59 62 63 73 
 74 75 77 80 81 82 84 88 92 
 26 
 2 17 20 22 23 24 30 39 40 41 42 43 
 49 51 58 60 62 71 72 74 78 79 85 93 
 94 96 
 45 
 1 4 5 8 11 12 13 15 16 18 19 20 
 22 23 25 26 27 29 34 35 37 38 40 41 
 42 46 48 49 50 52 62 64 67 75 76 80 
 83 86 87 88 91 92 93 94 95 
 71 
 1 2 3 5 6 7 8 9 10 12 13 14 
 15 16 17 18 19 20 21 22 24 25 27 28 
 31 33 34 36 37 39 40 42 44 45 49 50 
 51 53 56 57 58 59 60 61 62 63 64 65 
 66 67 68 69 70 73 75 76 77 78 79 81 
 82 83 85 87 88 90 92 94 95 96 97 
 48 
 1 4 6 9 13 14 16 17 20 21 23 24 
 26 30 32 37 39 40 43 44 47 52 56 58 
 60 61 62 63 64 68 69 73 75 76 77 78 
 79 80 81 83 86 87 88 90 91 92 94 96 
 85 
 1 2 3 4 5 6 7 8 9 10 12 13 
 14 15 16 17 18 19 20 21 22 23 24 25 
 26 28 29 31 33 34 35 36 37 38 39 42 
 43 44 45 47 48 49 50 51 52 53 54 56 
 57 58 60 61 62 63 65 66 67 68 69 70 
 71 72 73 74 75 77 78 79 80 82 83 84 
 85 86 87 88 89 90 91 92 93 94 95 96 
 97 
 41 
 1 2 4 6 11 17 23 24 27 29 32 35 
 36 37 38 40 44 45 47 58 59 60 62 64 
 66 67 68 70 71 72 73 79 80 82 84 89 
 90 91 92 96 97 
 2 
 24 83 
 78 
 1 2 4 5 6 9 10 11 12 13 14 15 
 16 17 18 19 20 21 22 23 24 25 27 28 
 30 31 32 33 34 35 36 37 38 39 40 41 
 42 43 45 46 47 48 49 50 51 52 53 55 
 57 58 59 62 64 65 66 67 69 70 71 73 
 74 76 77 78 79 80 81 82 83 85 86 87 
 88 91 92 93 95 97 
 59 
 1 2 3 6 7 8 10 12 13 15 19 20 
 24 29 30 32 34 35 36 37 38 39 40 41 
 42 43 44 45 47 50 51 55 56 58 59 61 
 62 63 65 68 69 71 73 74 75 76 78 80 
 84 85 86 87 89 90 92 93 95 96 97 
 39 
 3 4 7 13 15 16 23 24 25 27 29 33 
 34 44 47 50 51 53 55 56 57 58 59 61 
 65 66 67 68 70 74 75 76 78 83 86 89 
 91 94 96 
 24 
 1 2 17 22 23 33 36 43 45 50 55 59 
 64 69 76 82 83 85 86 91 92 94 95 97 
 61 
 1 2 3 4 7 8 9 10 11 13 14 16 
 17 18 19 20 23 24 25 28 29 30 31 33 
 34 35 37 38 39 40 41 42 45 46 49 50 
 51 52 55 57 58 59 61 63 64 66 70 71 
 72 76 77 78 80 82 84 86 87 89 90 91 
 95 
 89 
 1 2 3 4 5 6 7 9 10 11 12 13 
 14 15 16 17 18 19 20 21 23 24 25 26 
 27 28 29 30 31 33 34 35 36 37 38 39 
 40 41 42 43 44 45 46 47 48 49 50 51 
 53 54 55 56 57 58 59 61 62 63 67 68 
 69 70 71 72 73 74 75 76 77 78 79 80 
 81 82 83 84 85 86 87 88 89 90 91 92 
 93 94 95 96 97 
 60 
 1 3 4 5 6 7 8 9 10 11 15 16 
 17 19 20 22 24 26 29 31 34 35 36 37 
 38 40 41 44 49 50 52 53 54 55 56 58 
 59 62 64 68 69 70 71 72 73 75 76 77 
 80 81 82 83 84 85 86 88 92 93 95 97 
 87 
 1 2 3 4 5 6 7 8 9 10 11 12 
 13 15 16 17 18 19 21 22 23 25 26 27 
 28 29 30 31 32 33 34 35 37 38 39 40 
 41 42 43 44 46 47 48 49 50 51 52 53 
 54 55 56 57 58 60 62 63 64 65 66 67 
 68 69 70 71 72 73 74 75 76 77 79 80 
 81 82 83 84 85 86 87 88 89 90 91 92 
 95 96 97 
 5 
 15 16 17 22 82 
 36 
 3 6 8 13 14 15 17 18 21 23 30 32 
 34 37 38 41 44 50 51 54 55 57 63 64 
 71 76 78 80 85 87 89 90 91 92 93 94 
 75 
 1 2 3 4 5 6 7 8 9 10 12 13 
 14 15 17 18 22 23 24 25 27 28 30 31 
 32 34 35 36 37 38 40 41 42 45 47 48 
 49 51 52 53 54 55 56 57 59 61 62 63 
 64 66 67 68 70 71 72 74 75 76 77 78 
 79 80 81 84 86 87 88 90 91 92 93 94 
 95 96 97 
 92 
 1 2 4 5 6 7 8 9 10 11 12 13 
 14 15 16 17 18 19 20 21 22 23 24 25 
 26 27 28 29 30 31 32 34 35 36 37 38 
 39 40 41 42 43 45 46 47 48 49 50 51 
 52 53 54 55 56 57 58 59 60 61 62 63 
 64 65 66 67 68 69 70 71 72 73 74 75 
 76 77 78 79 80 81 82 83 84 85 86 88 
 89 90 91 92 93 95 96 97 
 50 
 1 2 5 6 7 9 10 11 13 15 16 17 
 19 20 22 25 26 27 28 30 31 32 33 34 
 38 41 44 46 47 48 49 50 55 56 60 62 
 63 64 66 69 70 71 76 81 86 89 91 92 
 93 95 
 67 
 1 2 3 4 5 6 7 9 10 12 13 16 
 17 18 20 21 22 23 24 25 26 27 28 31 
 32 35 36 37 40 41 44 45 46 47 48 49 
 51 53 54 56 57 58 59 60 62 63 64 66 
 67 68 69 71 76 77 79 81 82 83 84 85 
 87 88 91 93 94 95 97 
 10 
 4 11 15 18 45 47 70 76 85 91 
 37 
 1 2 4 5 8 14 15 17 21 25 26 30 
 31 36 38 39 42 43 49 51 52 53 55 60 
 62 63 64 67 68 69 71 76 82 87 90 94 
 95 
 10 
 6 11 15 22 27 29 55 68 80 83 
 70 
 1 2 4 5 7 9 11 12 13 14 15 16 
 17 19 21 22 23 24 26 28 29 32 33 34 
 37 38 39 40 42 43 44 45 46 47 49 50 
 51 56 57 58 59 61 62 63 65 66 67 68 
 69 70 71 72 73 74 75 77 79 80 81 82 
 83 85 86 87 90 92 93 94 96 97 
 8 
 10 16 28 35 38 40 42 45 
 61 
 1 2 4 6 8 12 13 14 16 17 18 20 
 21 22 24 25 26 27 29 30 33 35 36 38 
 40 42 45 47 48 49 51 57 59 60 61 64 
 65 66 67 68 69 70 71 74 75 76 77 79 
 80 82 83 84 85 87 89 90 91 92 94 95 
 97 
 23 
 2 5 8 9 10 35 38 40 42 44 45 47 
 49 53 57 59 61 64 70 75 82 89 90 
 78 
 1 2 3 4 5 6 7 8 10 11 12 13 
 14 15 16 17 18 20 22 23 24 26 28 29 
 30 31 32 33 35 36 37 38 39 40 41 42 
 43 45 46 48 49 50 54 56 58 60 61 62 
 63 64 65 66 67 69 70 71 72 73 74 75 
 76 77 78 80 81 82 83 84 85 86 87 89 
 91 92 93 95 96 97 
 72 
 1 2 4 5 6 7 8 9 10 11 12 13 
 14 15 16 17 18 21 22 23 24 25 26 27 
 30 32 35 36 37 38 39 40 41 42 43 47 
 49 50 51 52 53 54 55 56 57 59 60 61 
 62 63 65 66 68 70 71 72 73 75 76 78 
 79 81 82 83 84 86 87 88 91 92 95 97 
 11 
 41 46 48 51 52 54 55 76 78 85 96 
 87 
 1 2 3 4 5 6 7 8 9 10 11 12 
 13 14 15 16 17 19 20 22 23 24 25 26 
 27 28 29 30 31 33 34 35 36 37 38 39 
 40 42 43 44 45 46 47 48 49 51 52 53 
 54 55 56 57 60 61 62 63 64 65 66 67 
 68 69 70 71 72 73 74 75 76 77 79 80 
 82 83 84 85 86 87 88 89 90 91 92 94 
 95 96 97 
 59 
 1 3 4 5 8 9 11 14 15 16 17 18 
 20 26 27 28 29 30 35 37 38 39 40 42 
 43 44 45 46 47 50 52 53 54 56 58 59 
 60 61 62 64 66 67 69 70 71 74 75 79 
 80 82 84 85 86 87 90 91 92 93 96 
 28 
 3 8 10 12 13 18 26 27 28 29 32 35 
 45 52 53 57 61 62 64 78 79 81 83 85 
 88 92 95 96 
 32 
 4 6 13 16 20 21 22 26 27 33 35 37 
 38 41 42 46 47 48 49 52 55 62 65 66 
 70 71 74 79 80 84 92 94 
 92 
 1 2 3 4 5 6 7 8 9 10 11 12 
 13 14 16 17 18 19 20 21 22 23 24 25 
 26 27 28 30 31 32 33 34 35 36 37 38 
 39 40 41 42 43 45 46 47 49 50 51 52 
 53 54 55 56 57 58 59 60 61 62 63 64 
 65 66 67 68 69 70 71 72 73 74 75 76 
 77 78 79 80 81 82 83 84 85 86 87 88 
 89 90 92 93 94 95 96 97 
 41 
 5 6 9 10 14 17 18 22 23 25 26 30 
 31 32 33 37 39 43 46 49 50 51 54 57 
 63 64 67 68 69 70 71 76 78 79 80 84 
 85 86 89 94 95 
 7 
 6 41 47 55 75 80 96 
 48 
 1 2 3 5 7 9 10 13 17 21 26 27 
 30 31 32 33 34 36 37 38 39 44 45 47 
 52 54 55 56 57 65 66 69 70 73 75 79 
 80 81 82 83 85 87 88 89 90 91 92 93 
 35 
 3 5 9 10 14 16 19 20 23 28 37 38 
 41 44 46 47 57 61 64 66 67 68 69 70 
 73 74 79 82 83 84 85 86 87 89 93 
 20 
 7 8 9 11 14 22 23 31 33 45 46 51 
 53 66 68 70 74 84 86 88 
 53 
 1 2 3 6 7 9 10 11 12 13 14 15 
 16 23 30 31 32 33 37 38 39 40 46 48 
 49 50 51 52 54 55 56 57 58 59 64 65 
 66 72 73 74 75 76 78 79 81 83 84 87 
 90 92 94 95 97 
 62 
 1 4 5 6 9 10 11 16 18 19 21 23 
 24 26 27 30 31 32 35 36 37 39 41 42 
 43 47 48 50 51 53 54 55 56 57 58 59 
 60 62 63 64 66 68 69 70 71 72 73 75 
 77 78 79 80 81 82 84 86 87 88 89 94 
 95 96 
 53 
 1 2 3 4 6 8 9 10 13 15 16 19 
 20 21 24 25 26 29 32 37 38 39 40 41 
 47 49 50 51 52 53 56 62 63 65 68 69 
 70 71 74 76 77 78 81 82 84 85 86 88 
 90 91 92 93 96 
 23 
 2 4 17 18 23 25 28 38 40 41 46 49 
 52 53 58 68 72 73 78 83 85 86 90 
 38 
 1 3 4 6 7 9 11 19 20 26 27 28 
 31 34 38 40 42 43 45 46 49 50 56 60 
 61 63 65 71 77 81 82 83 85 87 88 89 
 95 96 
 46 
 3 5 7 11 13 14 22 24 27 29 33 35 
 38 41 42 43 46 47 48 49 50 51 52 58 
 60 61 62 64 68 71 72 73 75 77 78 79 
 81 82 83 85 87 90 93 94 96 97 
 93 
 1 2 3 4 5 6 7 8 9 10 11 12 
 13 14 15 16 17 19 20 21 22 23 24 25 
 26 27 28 29 30 31 32 34 35 36 37 38 
 39 40 41 42 43 44 45 46 47 48 49 50 
 51 52 53 54 55 56 57 58 59 61 62 63 
 64 65 66 67 68 69 70 71 72 73 74 75 
 76 77 78 79 80 82 83 84 85 86 87 88 
 89 90 91 92 93 94 95 96 97 
 63 
 1 2 3 4 7 8 10 13 14 15 17 18 
 21 22 23 24 25 26 28 29 31 32 35 36 
 37 38 39 40 41 44 45 47 48 50 51 54 
 55 58 59 61 62 65 67 69 71 73 75 76 
 77 79 80 81 82 83 84 85 86 87 88 89 
 92 94 95 
 75 
 1 2 3 5 6 7 8 9 11 14 15 16 
 17 18 20 21 23 27 28 30 31 34 35 36 
 38 39 40 41 42 43 44 46 47 48 49 50 
 52 53 54 55 56 57 58 59 60 61 62 63 
 65 66 67 68 70 71 72 73 74 76 78 79 
 80 81 82 83 84 85 86 87 88 89 90 91 
 94 96 97 
 64 
 1 2 3 4 5 7 9 10 11 12 14 16 
 18 21 22 23 24 25 26 29 30 32 33 34 
 35 37 38 39 40 41 42 43 45 46 47 48 
 50 51 54 55 57 58 59 60 62 63 64 65 
 67 70 76 78 79 80 82 84 85 86 88 89 
 90 92 93 96 
 33 
 3 5 8 10 12 13 16 18 20 22 24 28 
 31 33 35 36 37 45 47 50 53 57 58 64 
 66 74 75 81 83 89 90 91 97 
 62 
 2 4 5 7 8 9 10 11 12 13 14 18 
 19 20 22 23 24 25 26 27 28 29 30 31 
 32 33 35 36 37 38 41 43 44 45 49 51 
 55 57 58 59 61 62 63 64 65 67 71 72 
 74 76 77 78 80 83 85 88 89 91 92 94 
 95 96 
 8 
 11 24 27 34 53 57 61 68 
 86 
 1 2 4 5 7 8 9 10 11 12 13 14 
 15 16 17 18 19 20 21 22 23 25 26 27 
 28 29 30 31 32 33 35 36 38 39 40 42 
 44 45 46 47 48 49 50 51 54 55 56 57 
 58 59 60 61 62 63 64 65 66 67 68 69 
 70 71 72 73 75 76 77 78 79 80 81 83 
 84 85 86 87 88 89 90 91 92 93 94 95 
 96 97 
 21 
 1 3 5 8 15 16 34 35 37 45 47 54 
 61 62 63 69 76 78 86 88 89 
 72 
 2 3 4 5 7 8 9 10 11 14 16 17 
 18 19 20 21 22 24 25 26 27 28 29 30 
 31 33 35 38 40 41 43 44 46 47 48 49 
 51 52 53 54 55 57 58 59 60 61 62 64 
 65 66 67 68 70 71 72 74 75 76 78 79 
 82 84 85 86 87 88 89 91 93 94 96 97 
 86 
 1 2 5 6 7 8 9 12 14 15 16 17 
 18 19 20 21 22 23 24 25 26 27 28 29 
 30 31 32 33 34 35 36 37 38 39 40 41 
 42 44 45 46 48 49 50 51 52 53 55 56 
 57 58 59 60 61 62 63 64 65 66 67 68 
 69 70 71 72 73 75 76 77 78 79 80 81 
 82 83 84 85 86 87 88 89 90 91 92 93 
 94 96 
 93 
 1 2 3 4 5 6 7 8 9 10 11 12 
 13 14 16 17 18 19 20 21 22 23 24 25 
 26 27 28 29 30 31 32 33 34 35 36 37 
 38 39 40 41 42 43 44 45 46 48 49 50 
 51 52 53 54 55 56 57 58 59 60 61 62 
 63 65 66 67 68 69 70 71 72 73 74 75 
 76 78 79 80 81 82 83 84 85 86 87 88 
 89 90 91 92 93 94 95 96 97 
 5 
 25 37 57 68 84 
 75 
 2 3 4 5 6 7 8 10 11 14 15 17 
 18 19 20 22 23 24 25 27 28 29 30 32 
 36 37 38 39 41 42 44 45 46 47 48 49 
 52 53 55 56 57 58 60 61 62 63 64 65 
 67 68 69 70 71 72 73 74 76 77 79 80 
 81 82 83 84 85 86 88 89 91 92 93 94 
 95 96 97 
 4 
 7 24 41 55 
 8 
 13 14 17 40 66 73 86 88 
 72 
 4 8 9 10 11 12 13 14 15 16 17 18 
 19 20 21 22 23 26 27 28 29 30 31 32 
 33 34 37 38 40 41 44 45 46 47 48 49 
 50 51 52 53 55 56 57 59 61 62 66 67 
 68 69 71 72 73 75 76 77 78 79 80 82 
 83 84 85 86 87 89 90 91 92 94 95 96 
 86 
 1 2 3 5 6 7 8 9 10 11 12 13 
 14 15 16 18 19 20 23 24 25 27 29 31 
 32 33 34 35 36 37 38 39 40 41 43 44 
 45 46 47 48 49 50 51 52 53 54 55 56 
 57 58 59 60 61 62 63 64 65 66 67 68 
 69 70 71 72 74 75 76 77 78 79 80 82 
 83 84 85 86 87 88 89 90 92 93 94 95 
 96 97 
 50 
 1 6 7 8 9 10 16 18 19 23 27 28 
 29 30 31 34 35 38 40 41 42 43 44 46 
 47 48 55 56 59 63 64 65 66 68 69 72 
 73 76 77 78 79 81 82 84 87 89 91 94 
 95 96 
 47 
 1 4 5 6 9 10 14 16 17 22 23 24 
 26 28 31 34 35 39 40 41 42 43 45 46 
 47 50 53 56 57 59 60 66 72 73 74 75 
 76 83 84 87 89 91 92 93 94 95 96 
 24 
 3 8 15 17 19 20 21 22 24 27 28 32 
 38 41 42 43 44 50 51 55 56 60 68 76 
 59 
 3 8 11 12 13 15 16 18 19 20 21 23 
 24 25 26 28 29 30 31 33 34 35 36 37 
 38 43 44 45 47 48 49 50 54 56 57 58 
 60 61 62 66 68 69 71 72 73 76 78 79 
 82 83 86 87 89 90 91 93 94 95 96 
 44 
 1 5 8 10 14 15 16 17 19 20 22 25 
 26 28 29 30 33 37 39 42 43 46 49 51 
 52 55 57 61 63 67 70 74 75 77 78 80 
 82 83 84 85 88 91 94 96 
 23 
 1 3 9 17 19 21 24 30 31 33 42 47 
 48 51 54 60 66 75 77 81 82 87 94 
 51 
 2 3 4 9 10 11 12 14 17 20 22 23 
 25 26 37 38 41 43 46 47 48 50 51 52 
 53 54 55 57 60 63 64 65 69 70 72 74 
 77 79 80 81 82 84 85 87 88 90 91 92 
 93 95 96 
 72 
 1 2 3 4 5 6 8 9 10 11 13 14 
 15 17 18 19 20 22 23 24 25 26 27 28 
 29 32 35 36 38 40 41 42 44 46 47 48 
 49 52 53 54 55 56 57 62 63 64 65 66 
 67 69 70 71 72 74 76 78 79 80 81 82 
 83 84 85 86 88 89 91 92 94 95 96 97 
 81 
 2 3 4 5 6 7 8 9 10 11 12 13 
 14 15 16 17 18 20 22 23 26 27 28 29 
 31 32 33 34 36 37 38 39 41 42 43 44 
 45 46 47 49 50 51 52 53 54 55 56 59 
 60 61 62 63 65 66 67 68 69 70 71 72 
 73 74 75 76 77 80 81 82 83 85 86 87 
 88 89 90 92 93 94 95 96 97 
 90 
 1 2 3 4 5 6 8 9 10 11 12 13 
 14 15 16 17 18 19 20 21 22 23 24 25 
 26 27 28 29 30 31 32 33 34 35 37 38 
 40 41 42 43 44 46 47 48 49 50 51 52 
 53 54 55 56 57 58 59 60 61 62 64 65 
 66 67 68 69 70 71 72 73 74 75 76 77 
 78 80 82 83 84 85 86 87 88 89 90 91 
 92 93 94 95 96 97 
 34 
 5 6 9 13 15 16 17 20 22 24 25 32 
 36 42 43 44 47 49 54 56 57 61 62 67 
 73 75 77 81 84 85 86 90 91 93 
 4 
 18 54 64 81 
 10 
 1 9 20 31 38 42 54 65 70 75 
 39 
 1 4 6 9 10 12 15 16 17 21 23 24 
 25 26 27 34 42 43 44 45 46 54 56 62 
 65 70 72 73 75 77 79 81 82 87 88 91 
 92 94 95 
 48 
 1 3 4 6 7 8 9 11 14 15 16 18 
 19 25 26 28 29 30 31 34 37 40 42 45 
 49 50 52 54 58 59 60 62 65 66 67 68 
 72 73 74 77 82 83 85 86 87 88 91 95 
 87 
 1 2 3 4 5 6 7 8 9 10 11 13 
 14 15 16 17 18 19 20 21 22 23 24 25 
 27 28 29 30 32 33 34 36 37 38 39 40 
 41 42 43 44 46 47 49 50 51 52 53 54 
 55 56 57 58 59 60 61 62 64 65 66 67 
 69 70 71 73 74 75 76 77 78 79 80 81 
 82 83 84 85 86 87 88 89 91 92 93 94 
 95 96 97 
 25 
 1 7 12 15 28 34 36 40 45 47 50 54 
 57 60 64 77 80 81 83 84 85 87 90 92 
 95 
 62 
 2 4 5 6 7 8 9 11 15 16 17 18 
 22 23 25 27 28 30 31 32 34 35 36 37 
 39 41 42 45 46 47 49 50 52 53 54 56 
 57 60 61 63 64 66 67 69 71 73 74 75 
 76 77 78 79 83 85 86 88 90 92 94 95 
 96 97 
 15 
 2 10 11 13 16 18 29 39 43 46 53 72 
 78 81 91 
 8 
 18 20 27 51 62 75 85 95 
 13 
 25 33 37 43 45 55 57 60 67 81 93 95 
 97 
 13 
 6 19 28 29 30 33 46 49 61 66 84 87 
 94 
 64 
 1 2 3 4 7 8 9 10 11 12 15 16 
 17 18 21 22 24 25 26 27 30 31 32 33 
 34 35 36 38 39 40 41 42 45 47 49 50 
 52 53 56 58 59 60 61 64 65 66 67 68 
 69 71 72 73 74 76 77 78 79 84 85 87 
 89 92 93 97 
 29 
 2 3 5 12 16 17 18 19 27 30 31 33 
 40 41 52 53 54 55 58 61 63 66 68 71 
 80 81 83 85 88 
 49 
 1 3 4 6 9 10 13 19 20 21 23 24 
 25 28 30 31 36 38 39 42 43 44 48 51 
 52 54 55 56 57 59 60 61 62 65 66 67 
 69 73 74 76 80 82 83 88 89 90 91 96 
 97 
 34 
 8 14 15 16 18 23 25 29 30 32 36 41 
 42 43 48 49 50 51 52 54 55 56 60 68 
 70 72 73 74 77 87 88 89 92 93 
 9 
 6 20 25 37 41 44 60 67 87 
 64 
 3 5 7 8 9 10 11 12 13 14 15 16 
 18 19 21 22 25 26 27 29 33 35 36 37 
 39 40 41 43 44 45 46 47 48 51 52 53 
 54 55 56 57 59 61 62 63 64 65 66 68 
 70 75 80 81 83 84 85 86 88 89 90 91 
 92 95 96 97 
 63 
 1 3 5 6 7 8 9 12 14 16 18 21 
 22 23 24 26 28 29 32 34 35 36 38 39 
 41 42 45 46 47 48 49 50 51 53 54 56 
 58 60 61 63 66 67 69 70 74 75 76 79 
 80 81 82 83 84 85 86 88 89 90 91 93 
 94 96 97 
 83 
 1 2 5 6 7 8 9 10 11 12 14 15 
 18 19 20 21 22 24 25 28 29 30 31 32 
 34 35 36 37 38 39 40 41 43 44 45 46 
 47 48 49 51 53 54 55 56 57 58 59 60 
 61 62 63 64 66 67 68 69 70 71 73 74 
 75 76 77 78 79 80 81 82 83 84 85 86 
 87 88 89 90 91 92 93 94 95 96 97 
 81 
 1 2 4 5 6 7 8 10 11 12 15 16 
 17 18 19 20 22 23 24 26 28 29 30 34 
 35 36 37 38 40 41 42 43 44 45 46 47 
 48 50 51 52 53 54 55 56 58 59 60 61 
 62 63 64 65 66 67 68 70 71 72 73 74 
 75 76 78 79 80 81 82 83 84 85 86 87 
 88 89 91 92 93 94 95 96 97 
 10 
 11 20 34 36 39 52 53 62 74 86 
 28 
 3 7 15 20 21 24 25 26 28 29 32 36 
 42 44 45 55 60 64 68 76 83 85 86 87 
 89 90 93 96 
 33 
 3 5 6 10 11 14 17 19 21 23 24 26 
 27 28 29 31 32 39 46 48 50 53 59 60 
 63 71 74 79 82 85 86 89 90 
 85 
 1 2 3 4 5 6 8 9 10 11 13 14 
 15 16 17 18 19 20 21 22 23 24 25 26 
 27 28 29 30 31 32 33 34 35 37 38 39 
 40 41 42 43 44 45 46 47 48 49 50 51 
 52 53 54 55 59 62 63 64 65 66 67 68 
 69 70 71 72 74 75 76 77 78 79 80 81 
 82 83 84 85 86 88 89 90 91 93 94 95 
 97 
 74 
 1 2 3 4 5 6 7 8 10 13 15 16 
 17 18 19 23 25 26 28 29 31 32 33 35 
 36 37 39 40 41 42 43 44 45 46 47 48 
 49 50 51 52 53 54 55 56 57 58 60 61 
 62 64 66 67 68 69 70 71 72 73 74 75 
 77 78 79 81 82 83 85 86 88 90 92 93 
 96 97 
 49 
 2 6 8 12 14 15 18 19 20 22 23 26 
 31 32 33 36 38 42 44 45 46 47 48 49 
 51 53 57 58 59 61 62 64 65 66 67 68 
 69 71 75 77 78 80 81 82 85 87 92 93 
 95 
 11 
 1 2 9 11 16 30 42 48 51 73 88 
 18 
 5 10 16 20 23 25 26 27 30 37 70 74 
 77 83 87 88 89 91 
 85 
 1 2 3 4 5 6 7 8 10 11 12 13 
 14 15 16 17 18 19 20 21 22 23 24 25 
 26 27 28 29 30 32 33 34 36 37 38 39 
 41 42 43 44 45 46 47 48 49 50 51 52 
 56 58 59 60 61 62 63 64 65 66 67 68 
 69 70 71 72 73 74 75 76 77 78 80 81 
 82 84 85 87 88 90 91 92 93 94 95 96 
 97 
 49 
 1 2 4 6 8 11 13 17 18 19 20 23 
 25 26 27 31 32 34 37 43 45 46 47 48 
 49 52 53 55 60 61 62 63 67 72 73 74 
 75 79 84 85 86 88 89 90 91 93 95 96 
 97 
 56 
 2 3 5 6 7 13 14 15 17 18 20 21 
 23 24 26 27 28 31 33 34 35 36 37 38 
 39 41 43 44 46 51 52 53 54 55 56 57 
 59 60 61 64 66 68 69 70 73 75 76 78 
 79 80 82 84 88 90 91 92 
 36 
 2 3 7 13 14 15 16 19 24 25 26 38 
 44 46 49 54 58 59 63 65 66 67 70 72 
 75 76 77 79 80 81 84 85 94 95 96 97 
 54 
 1 3 4 5 6 9 14 17 18 21 22 24 
 26 29 30 31 34 39 40 43 44 45 47 48 
 49 51 52 53 56 57 58 59 60 63 65 66 
 67 68 69 72 73 74 76 77 79 81 85 87 
 89 91 93 95 96 97 
 23 
 8 12 14 15 28 30 34 35 36 39 44 49 
 53 56 57 63 71 72 85 87 88 89 93 
 54 
 1 2 3 4 9 11 12 13 17 20 21 22 
 23 25 27 29 30 31 32 33 34 35 41 46 
 47 48 49 51 52 54 56 58 61 62 66 67 
 68 69 70 72 76 77 79 80 81 82 83 87 
 90 91 92 95 96 97 
 83 
 1 2 4 5 6 7 8 9 10 11 12 13 
 14 15 17 18 20 22 23 24 25 26 27 28 
 31 32 33 34 36 38 40 41 42 43 45 46 
 47 48 49 50 51 52 54 55 56 57 58 60 
 61 62 63 64 65 66 67 68 69 70 72 73 
 74 75 76 77 78 79 80 81 82 83 84 85 
 87 88 89 90 91 92 93 94 95 96 97 
 8 
 2 6 9 19 23 26 49 57 
 28 
 5 6 8 9 23 27 28 33 38 39 43 45 
 47 49 50 52 56 75 77 78 83 84 87 88 
 89 90 91 94 
 